\Problem name: compact

Minimize
OBJROW: C
Subject To
ord(0,1):  - x(0,1) + x(0,2) >= 6
ord(0,2):  x(0,0) - x(0,2) >= 4
ord(1,1):  - x(1,1) + x(1,2) >= 9
ord(1,2):  x(1,0) - x(1,2) >= 9
ord(2,1):  - x(2,1) + x(2,2) >= 3
ord(2,2):  x(2,0) - x(2,2) >= 4
ord(3,1):  - x(3,1) + x(3,2) >= 5
ord(3,2):  x(3,0) - x(3,2) >= 2
triangle2(0,1,0):  y(0,1,0) + y(1,0,0) = 1
triangle2(0,1,1):  y(0,1,1) + y(1,0,1) = 1
triangle2(0,1,2):  y(0,1,2) + y(1,0,2) = 1
triangle2(0,2,0):  y(0,2,0) + y(2,0,0) = 1
triangle2(0,2,1):  y(0,2,1) + y(2,0,1) = 1
triangle2(0,2,2):  y(0,2,2) + y(2,0,2) = 1
triangle2(0,3,0):  y(0,3,0) + y(3,0,0) = 1
triangle2(0,3,1):  y(0,3,1) + y(3,0,1) = 1
triangle2(0,3,2):  y(0,3,2) + y(3,0,2) = 1
triangle2(1,2,0):  y(1,2,0) + y(2,1,0) = 1
triangle2(1,2,1):  y(1,2,1) + y(2,1,1) = 1
triangle2(1,2,2):  y(1,2,2) + y(2,1,2) = 1
triangle2(1,3,0):  y(1,3,0) + y(3,1,0) = 1
triangle2(1,3,1):  y(1,3,1) + y(3,1,1) = 1
triangle2(1,3,2):  y(1,3,2) + y(3,1,2) = 1
triangle2(2,3,0):  y(2,3,0) + y(3,2,0) = 1
triangle2(2,3,1):  y(2,3,1) + y(3,2,1) = 1
triangle2(2,3,2):  y(2,3,2) + y(3,2,2) = 1
MCLinV(0,1,0):  x(0,0) - v(0,1,0) - x(1,0) = 9
MCLinV(1,0,0):  - x(0,0) - v(1,0,0) + x(1,0) = 2
MCLin1(0,1,0):  u(0,1,0) >= -0
MCLin2(0,1,0):  -54 y(1,0,0) - u(0,1,0) <= -0
MCLin3(0,1,0):  35 y(1,0,0) + v(0,1,0) - u(0,1,0) <= 35
MCLin4(0,1,0):  35 y(1,0,0) - u(0,1,0) >= -0
MCLin5(0,1,0):  -54 y(1,0,0) + v(0,1,0) - u(0,1,0) >= -54
MCLin6(1,0,0):  u(1,0,0) >= -0
MCLin7(1,0,0):  -46 y(0,1,0) - u(1,0,0) <= -0
MCLin8(1,0,0):  43 y(0,1,0) + v(1,0,0) - u(1,0,0) <= 43
MCLin9(1,0,0):  43 y(0,1,0) - u(1,0,0) >= -0
MCLin10(1,0,0):  -46 y(0,1,0) + v(1,0,0) - u(1,0,0) >= -46
MCLinV(0,1,1):  x(0,1) - v(0,1,1) - x(1,1) = 9
MCLinV(1,0,1):  - x(0,1) - v(1,0,1) + x(1,1) = 6
MCLin1(0,1,1):  u(0,1,1) >= -0
MCLin2(0,1,1):  -46 y(1,0,1) - u(0,1,1) <= -0
MCLin3(0,1,1):  43 y(1,0,1) + v(0,1,1) - u(0,1,1) <= 43
MCLin4(0,1,1):  43 y(1,0,1) - u(0,1,1) >= -0
MCLin5(0,1,1):  -46 y(1,0,1) + v(0,1,1) - u(0,1,1) >= -46
MCLin6(1,0,1):  u(1,0,1) >= -0
MCLin7(1,0,1):  -58 y(0,1,1) - u(1,0,1) <= -0
MCLin8(1,0,1):  31 y(0,1,1) + v(1,0,1) - u(1,0,1) <= 31
MCLin9(1,0,1):  31 y(0,1,1) - u(1,0,1) >= -0
MCLin10(1,0,1):  -58 y(0,1,1) + v(1,0,1) - u(1,0,1) >= -58
MCLinV(0,1,2):  x(0,2) - v(0,1,2) - x(1,2) = 9
MCLinV(1,0,2):  - x(0,2) - v(1,0,2) + x(1,2) = 4
MCLin1(0,1,2):  u(0,1,2) >= -0
MCLin2(0,1,2):  -49 y(1,0,2) - u(0,1,2) <= -0
MCLin3(0,1,2):  40 y(1,0,2) + v(0,1,2) - u(0,1,2) <= 40
MCLin4(0,1,2):  40 y(1,0,2) - u(0,1,2) >= -0
MCLin5(0,1,2):  -49 y(1,0,2) + v(0,1,2) - u(0,1,2) >= -49
MCLin6(1,0,2):  u(1,0,2) >= -0
MCLin7(1,0,2):  -53 y(0,1,2) - u(1,0,2) <= -0
MCLin8(1,0,2):  36 y(0,1,2) + v(1,0,2) - u(1,0,2) <= 36
MCLin9(1,0,2):  36 y(0,1,2) - u(1,0,2) >= -0
MCLin10(1,0,2):  -53 y(0,1,2) + v(1,0,2) - u(1,0,2) >= -53
MCLinV(0,2,0):  x(0,0) - v(0,2,0) - x(2,0) = 3
MCLinV(2,0,0):  - x(0,0) - v(2,0,0) + x(2,0) = 2
MCLin1(0,2,0):  u(0,2,0) >= -0
MCLin2(0,2,0):  -54 y(2,0,0) - u(0,2,0) <= -0
MCLin3(0,2,0):  52 y(2,0,0) + v(0,2,0) - u(0,2,0) <= 52
MCLin4(0,2,0):  52 y(2,0,0) - u(0,2,0) >= -0
MCLin5(0,2,0):  -54 y(2,0,0) + v(0,2,0) - u(0,2,0) >= -54
MCLin6(2,0,0):  u(2,0,0) >= -0
MCLin7(2,0,0):  -57 y(0,2,0) - u(2,0,0) <= -0
MCLin8(2,0,0):  49 y(0,2,0) + v(2,0,0) - u(2,0,0) <= 49
MCLin9(2,0,0):  49 y(0,2,0) - u(2,0,0) >= -0
MCLin10(2,0,0):  -57 y(0,2,0) + v(2,0,0) - u(2,0,0) >= -57
MCLinV(0,2,1):  x(0,1) - v(0,2,1) - x(2,1) = 3
MCLinV(2,0,1):  - x(0,1) - v(2,0,1) + x(2,1) = 6
MCLin1(0,2,1):  u(0,2,1) >= -0
MCLin2(0,2,1):  -57 y(2,0,1) - u(0,2,1) <= -0
MCLin3(0,2,1):  49 y(2,0,1) + v(0,2,1) - u(0,2,1) <= 49
MCLin4(0,2,1):  49 y(2,0,1) - u(0,2,1) >= -0
MCLin5(0,2,1):  -57 y(2,0,1) + v(0,2,1) - u(0,2,1) >= -57
MCLin6(2,0,1):  u(2,0,1) >= -0
MCLin7(2,0,1):  -58 y(0,2,1) - u(2,0,1) <= -0
MCLin8(2,0,1):  48 y(0,2,1) + v(2,0,1) - u(2,0,1) <= 48
MCLin9(2,0,1):  48 y(0,2,1) - u(2,0,1) >= -0
MCLin10(2,0,1):  -58 y(0,2,1) + v(2,0,1) - u(2,0,1) >= -58
MCLinV(0,2,2):  x(0,2) - v(0,2,2) - x(2,2) = 4
MCLinV(2,0,2):  - x(0,2) - v(2,0,2) + x(2,2) = 4
MCLin1(0,2,2):  u(0,2,2) >= -0
MCLin2(0,2,2):  -55 y(2,0,2) - u(0,2,2) <= -0
MCLin3(0,2,2):  51 y(2,0,2) + v(0,2,2) - u(0,2,2) <= 51
MCLin4(0,2,2):  51 y(2,0,2) - u(0,2,2) >= -0
MCLin5(0,2,2):  -55 y(2,0,2) + v(0,2,2) - u(0,2,2) >= -55
MCLin6(2,0,2):  u(2,0,2) >= -0
MCLin7(2,0,2):  -59 y(0,2,2) - u(2,0,2) <= -0
MCLin8(2,0,2):  47 y(0,2,2) + v(2,0,2) - u(2,0,2) <= 47
MCLin9(2,0,2):  47 y(0,2,2) - u(2,0,2) >= -0
MCLin10(2,0,2):  -59 y(0,2,2) + v(2,0,2) - u(2,0,2) >= -59
MCLinV(0,3,0):  x(0,0) - v(0,3,0) - x(3,0) = 8
MCLinV(3,0,0):  - x(0,0) - v(3,0,0) + x(3,0) = 2
MCLin1(0,3,0):  u(0,3,0) >= -0
MCLin2(0,3,0):  -54 y(3,0,0) - u(0,3,0) <= -0
MCLin3(0,3,0):  47 y(3,0,0) + v(0,3,0) - u(0,3,0) <= 47
MCLin4(0,3,0):  47 y(3,0,0) - u(0,3,0) >= -0
MCLin5(0,3,0):  -54 y(3,0,0) + v(0,3,0) - u(0,3,0) >= -54
MCLin6(3,0,0):  u(3,0,0) >= -0
MCLin7(3,0,0):  -57 y(0,3,0) - u(3,0,0) <= -0
MCLin8(3,0,0):  44 y(0,3,0) + v(3,0,0) - u(3,0,0) <= 44
MCLin9(3,0,0):  44 y(0,3,0) - u(3,0,0) >= -0
MCLin10(3,0,0):  -57 y(0,3,0) + v(3,0,0) - u(3,0,0) >= -57
MCLinV(0,3,1):  x(0,1) - v(0,3,1) - x(3,1) = 5
MCLinV(3,0,1):  - x(0,1) - v(3,0,1) + x(3,1) = 6
MCLin1(0,3,1):  u(0,3,1) >= -0
MCLin2(0,3,1):  -54 y(3,0,1) - u(0,3,1) <= -0
MCLin3(0,3,1):  47 y(3,0,1) + v(0,3,1) - u(0,3,1) <= 47
MCLin4(0,3,1):  47 y(3,0,1) - u(0,3,1) >= -0
MCLin5(0,3,1):  -54 y(3,0,1) + v(0,3,1) - u(0,3,1) >= -54
MCLin6(3,0,1):  u(3,0,1) >= -0
MCLin7(3,0,1):  -58 y(0,3,1) - u(3,0,1) <= -0
MCLin8(3,0,1):  43 y(0,3,1) + v(3,0,1) - u(3,0,1) <= 43
MCLin9(3,0,1):  43 y(0,3,1) - u(3,0,1) >= -0
MCLin10(3,0,1):  -58 y(0,3,1) + v(3,0,1) - u(3,0,1) >= -58
MCLinV(0,3,2):  x(0,2) - v(0,3,2) - x(3,2) = 2
MCLinV(3,0,2):  - x(0,2) - v(3,0,2) + x(3,2) = 4
MCLin1(0,3,2):  u(0,3,2) >= -0
MCLin2(0,3,2):  -50 y(3,0,2) - u(0,3,2) <= -0
MCLin3(0,3,2):  51 y(3,0,2) + v(0,3,2) - u(0,3,2) <= 51
MCLin4(0,3,2):  51 y(3,0,2) - u(0,3,2) >= -0
MCLin5(0,3,2):  -50 y(3,0,2) + v(0,3,2) - u(0,3,2) >= -50
MCLin6(3,0,2):  u(3,0,2) >= -0
MCLin7(3,0,2):  -57 y(0,3,2) - u(3,0,2) <= -0
MCLin8(3,0,2):  44 y(0,3,2) + v(3,0,2) - u(3,0,2) <= 44
MCLin9(3,0,2):  44 y(0,3,2) - u(3,0,2) >= -0
MCLin10(3,0,2):  -57 y(0,3,2) + v(3,0,2) - u(3,0,2) >= -57
MCLinV(1,2,0):  x(1,0) - v(1,2,0) - x(2,0) = 3
MCLinV(2,1,0):  - x(1,0) - v(2,1,0) + x(2,0) = 9
MCLin1(1,2,0):  u(1,2,0) >= -0
MCLin2(1,2,0):  -46 y(2,1,0) - u(1,2,0) <= -0
MCLin3(1,2,0):  45 y(2,1,0) + v(1,2,0) - u(1,2,0) <= 45
MCLin4(1,2,0):  45 y(2,1,0) - u(1,2,0) >= -0
MCLin5(1,2,0):  -46 y(2,1,0) + v(1,2,0) - u(1,2,0) >= -46
MCLin6(2,1,0):  u(2,1,0) >= -0
MCLin7(2,1,0):  -57 y(1,2,0) - u(2,1,0) <= -0
MCLin8(2,1,0):  34 y(1,2,0) + v(2,1,0) - u(2,1,0) <= 34
MCLin9(2,1,0):  34 y(1,2,0) - u(2,1,0) >= -0
MCLin10(2,1,0):  -57 y(1,2,0) + v(2,1,0) - u(2,1,0) >= -57
MCLinV(1,2,1):  x(1,1) - v(1,2,1) - x(2,1) = 3
MCLinV(2,1,1):  - x(1,1) - v(2,1,1) + x(2,1) = 9
MCLin1(1,2,1):  u(1,2,1) >= -0
MCLin2(1,2,1):  -57 y(2,1,1) - u(1,2,1) <= -0
MCLin3(1,2,1):  34 y(2,1,1) + v(1,2,1) - u(1,2,1) <= 34
MCLin4(1,2,1):  34 y(2,1,1) - u(1,2,1) >= -0
MCLin5(1,2,1):  -57 y(2,1,1) + v(1,2,1) - u(1,2,1) >= -57
MCLin6(2,1,1):  u(2,1,1) >= -0
MCLin7(2,1,1):  -46 y(1,2,1) - u(2,1,1) <= -0
MCLin8(2,1,1):  45 y(1,2,1) + v(2,1,1) - u(2,1,1) <= 45
MCLin9(2,1,1):  45 y(1,2,1) - u(2,1,1) >= -0
MCLin10(2,1,1):  -46 y(1,2,1) + v(2,1,1) - u(2,1,1) >= -46
MCLinV(1,2,2):  x(1,2) - v(1,2,2) - x(2,2) = 4
MCLinV(2,1,2):  - x(1,2) - v(2,1,2) + x(2,2) = 9
MCLin1(1,2,2):  u(1,2,2) >= -0
MCLin2(1,2,2):  -52 y(2,1,2) - u(1,2,2) <= -0
MCLin3(1,2,2):  39 y(2,1,2) + v(1,2,2) - u(1,2,2) <= 39
MCLin4(1,2,2):  39 y(2,1,2) - u(1,2,2) >= -0
MCLin5(1,2,2):  -52 y(2,1,2) + v(1,2,2) - u(1,2,2) >= -52
MCLin6(2,1,2):  u(2,1,2) >= -0
MCLin7(2,1,2):  -52 y(1,2,2) - u(2,1,2) <= -0
MCLin8(2,1,2):  39 y(1,2,2) + v(2,1,2) - u(2,1,2) <= 39
MCLin9(2,1,2):  39 y(1,2,2) - u(2,1,2) >= -0
MCLin10(2,1,2):  -52 y(1,2,2) + v(2,1,2) - u(2,1,2) >= -52
MCLinV(1,3,0):  x(1,0) - v(1,3,0) - x(3,0) = 8
MCLinV(3,1,0):  - x(1,0) - v(3,1,0) + x(3,0) = 9
MCLin1(1,3,0):  u(1,3,0) >= -0
MCLin2(1,3,0):  -46 y(3,1,0) - u(1,3,0) <= -0
MCLin3(1,3,0):  40 y(3,1,0) + v(1,3,0) - u(1,3,0) <= 40
MCLin4(1,3,0):  40 y(3,1,0) - u(1,3,0) >= -0
MCLin5(1,3,0):  -46 y(3,1,0) + v(1,3,0) - u(1,3,0) >= -46
MCLin6(3,1,0):  u(3,1,0) >= -0
MCLin7(3,1,0):  -57 y(1,3,0) - u(3,1,0) <= -0
MCLin8(3,1,0):  29 y(1,3,0) + v(3,1,0) - u(3,1,0) <= 29
MCLin9(3,1,0):  29 y(1,3,0) - u(3,1,0) >= -0
MCLin10(3,1,0):  -57 y(1,3,0) + v(3,1,0) - u(3,1,0) >= -57
MCLinV(1,3,1):  x(1,1) - v(1,3,1) - x(3,1) = 5
MCLinV(3,1,1):  - x(1,1) - v(3,1,1) + x(3,1) = 9
MCLin1(1,3,1):  u(1,3,1) >= -0
MCLin2(1,3,1):  -54 y(3,1,1) - u(1,3,1) <= -0
MCLin3(1,3,1):  32 y(3,1,1) + v(1,3,1) - u(1,3,1) <= 32
MCLin4(1,3,1):  32 y(3,1,1) - u(1,3,1) >= -0
MCLin5(1,3,1):  -54 y(3,1,1) + v(1,3,1) - u(1,3,1) >= -54
MCLin6(3,1,1):  u(3,1,1) >= -0
MCLin7(3,1,1):  -46 y(1,3,1) - u(3,1,1) <= -0
MCLin8(3,1,1):  40 y(1,3,1) + v(3,1,1) - u(3,1,1) <= 40
MCLin9(3,1,1):  40 y(1,3,1) - u(3,1,1) >= -0
MCLin10(3,1,1):  -46 y(1,3,1) + v(3,1,1) - u(3,1,1) >= -46
MCLinV(1,3,2):  x(1,2) - v(1,3,2) - x(3,2) = 2
MCLinV(3,1,2):  - x(1,2) - v(3,1,2) + x(3,2) = 9
MCLin1(1,3,2):  u(1,3,2) >= -0
MCLin2(1,3,2):  -47 y(3,1,2) - u(1,3,2) <= -0
MCLin3(1,3,2):  39 y(3,1,2) + v(1,3,2) - u(1,3,2) <= 39
MCLin4(1,3,2):  39 y(3,1,2) - u(1,3,2) >= -0
MCLin5(1,3,2):  -47 y(3,1,2) + v(1,3,2) - u(1,3,2) >= -47
MCLin6(3,1,2):  u(3,1,2) >= -0
MCLin7(3,1,2):  -50 y(1,3,2) - u(3,1,2) <= -0
MCLin8(3,1,2):  36 y(1,3,2) + v(3,1,2) - u(3,1,2) <= 36
MCLin9(3,1,2):  36 y(1,3,2) - u(3,1,2) >= -0
MCLin10(3,1,2):  -50 y(1,3,2) + v(3,1,2) - u(3,1,2) >= -50
MCLinV(2,3,0):  x(2,0) - v(2,3,0) - x(3,0) = 8
MCLinV(3,2,0):  - x(2,0) - v(3,2,0) + x(3,0) = 3
MCLin1(2,3,0):  u(2,3,0) >= -0
MCLin2(2,3,0):  -57 y(3,2,0) - u(2,3,0) <= -0
MCLin3(2,3,0):  46 y(3,2,0) + v(2,3,0) - u(2,3,0) <= 46
MCLin4(2,3,0):  46 y(3,2,0) - u(2,3,0) >= -0
MCLin5(2,3,0):  -57 y(3,2,0) + v(2,3,0) - u(2,3,0) >= -57
MCLin6(3,2,0):  u(3,2,0) >= -0
MCLin7(3,2,0):  -57 y(2,3,0) - u(3,2,0) <= -0
MCLin8(3,2,0):  46 y(2,3,0) + v(3,2,0) - u(3,2,0) <= 46
MCLin9(3,2,0):  46 y(2,3,0) - u(3,2,0) >= -0
MCLin10(3,2,0):  -57 y(2,3,0) + v(3,2,0) - u(3,2,0) >= -57
MCLinV(2,3,1):  x(2,1) - v(2,3,1) - x(3,1) = 5
MCLinV(3,2,1):  - x(2,1) - v(3,2,1) + x(3,1) = 3
MCLin1(2,3,1):  u(2,3,1) >= -0
MCLin2(2,3,1):  -54 y(3,2,1) - u(2,3,1) <= -0
MCLin3(2,3,1):  49 y(3,2,1) + v(2,3,1) - u(2,3,1) <= 49
MCLin4(2,3,1):  49 y(3,2,1) - u(2,3,1) >= -0
MCLin5(2,3,1):  -54 y(3,2,1) + v(2,3,1) - u(2,3,1) >= -54
MCLin6(3,2,1):  u(3,2,1) >= -0
MCLin7(3,2,1):  -57 y(2,3,1) - u(3,2,1) <= -0
MCLin8(3,2,1):  46 y(2,3,1) + v(3,2,1) - u(3,2,1) <= 46
MCLin9(3,2,1):  46 y(2,3,1) - u(3,2,1) >= -0
MCLin10(3,2,1):  -57 y(2,3,1) + v(3,2,1) - u(3,2,1) >= -57
MCLinV(2,3,2):  x(2,2) - v(2,3,2) - x(3,2) = 2
MCLinV(3,2,2):  - x(2,2) - v(3,2,2) + x(3,2) = 4
MCLin1(2,3,2):  u(2,3,2) >= -0
MCLin2(2,3,2):  -53 y(3,2,2) - u(2,3,2) <= -0
MCLin3(2,3,2):  50 y(3,2,2) + v(2,3,2) - u(2,3,2) <= 50
MCLin4(2,3,2):  50 y(3,2,2) - u(2,3,2) >= -0
MCLin5(2,3,2):  -53 y(3,2,2) + v(2,3,2) - u(2,3,2) >= -53
MCLin6(3,2,2):  u(3,2,2) >= -0
MCLin7(3,2,2):  -56 y(2,3,2) - u(3,2,2) <= -0
MCLin8(3,2,2):  47 y(2,3,2) + v(3,2,2) - u(3,2,2) <= 47
MCLin9(3,2,2):  47 y(2,3,2) - u(3,2,2) >= -0
MCLin10(3,2,2):  -56 y(2,3,2) + v(3,2,2) - u(3,2,2) >= -56
makespan(0):  C - x(0,0) >= 2
makespan(1):  C - x(1,0) >= 9
makespan(2):  C - x(2,0) >= 3
makespan(3):  C - x(3,0) >= 8
cut_clique_0(0123,0):  0.01460 x(0,0) + 0.02190 x(2,0) + 0.05839 x(3,0) >= 1
cut_clique_0(023,0):  0.01460 x(0,0) + 0.02190 x(2,0) + 0.05839 x(3,0) >= 1
cut_clique_0(123,0):  0.02970 x(2,0) + 0.07921 x(3,0) >= 1
cut_clique_0(0123,1):  0.20000 x(1,1) + 0.11111 x(3,1) >= 1
cut_clique_0(123,1):  0.20000 x(1,1) + 0.11111 x(3,1) >= 1
cut_clique_0(012,1):  0.33333 x(1,1) + 0.11111 x(2,1) >= 1
cut_clique_0(013,1):  0.20000 x(1,1) + 0.11111 x(3,1) >= 1
cut_clique_0(023,1):  0.09524 x(0,1) + 0.04762 x(2,1) + 0.07937 x(3,1) >= 1
cut_clique_0(0123,2):  0.01282 x(0,2) + 0.02885 x(1,2) + 0.01282 x(2,2) + 0.06731 x(3,2) >= 1
cut_clique_0(023,2):  0.03030 x(0,2) + 0.03030 x(2,2) + 0.09091 x(3,2) >= 1
cut_clique_0(013,2):  0.01432 x(0,2) + 0.07877 x(1,2) + 0.00665 x(3,2) >= 1
cut_clique_0(123,2):  0.05238 x(1,2) + 0.00952 x(2,2) + 0.07143 x(3,2) >= 1
cut_clique_0(012,2):  0.01455 x(0,2) + 0.08004 x(1,2) + 0.00591 x(2,2) >= 1
cut_clique_1(0123,1):  0.03175 x(0,1) + 0.04762 x(1,1) + 0.01587 x(2,1) + 0.02646 x(3,1) >= 1
cut_clique_0:  0.02469 x(1,0) + 0.00823 x(2,0) + 0.05487 x(1,1) + 0.03704 x(1,2) >= 1
cut_clique_1:  0.02311 x(1,0) + 0.00770 x(2,0) + 0.05135 x(1,1) + 0.02853 x(3,1) + 0.01326 x(1,2) >= 1
cut_clique_2:  0.02383 x(1,0) + 0.00794 x(2,0) + 0.03737 x(1,1) + 0.01557 x(3,1) + 0.02406 x(1,2) >= 1
Bounds
 0 <= C <= 64
 10 <= x(0,0) <= 62
 0 <= y(0,1,0) <= 1
 0 <= y(1,0,0) <= 1
 -54 <= v(0,1,0) <= 35
 -46 <= v(1,0,0) <= 43
 -640 <= u(0,1,0)
 -640 <= u(1,0,0)
 0 <= y(0,2,0) <= 1
 0 <= y(2,0,0) <= 1
 -54 <= v(0,2,0) <= 52
 -57 <= v(2,0,0) <= 49
 -640 <= u(0,2,0)
 -640 <= u(2,0,0)
 0 <= y(0,3,0) <= 1
 0 <= y(3,0,0) <= 1
 -54 <= v(0,3,0) <= 47
 -57 <= v(3,0,0) <= 44
 -640 <= u(0,3,0)
 -640 <= u(3,0,0)
 18 <= x(1,0) <= 55
 0 <= y(1,2,0) <= 1
 0 <= y(2,1,0) <= 1
 -46 <= v(1,2,0) <= 45
 -57 <= v(2,1,0) <= 34
 -640 <= u(1,2,0)
 -640 <= u(2,1,0)
 0 <= y(1,3,0) <= 1
 0 <= y(3,1,0) <= 1
 -46 <= v(1,3,0) <= 40
 -57 <= v(3,1,0) <= 29
 -640 <= u(1,3,0)
 -640 <= u(3,1,0)
 7 <= x(2,0) <= 61
 0 <= y(2,3,0) <= 1
 0 <= y(3,2,0) <= 1
 -57 <= v(2,3,0) <= 46
 -57 <= v(3,2,0) <= 46
 -640 <= u(2,3,0)
 -640 <= u(3,2,0)
 7 <= x(3,0) <= 56
 0 <= x(0,1) <= 52
 0 <= y(0,1,1) <= 1
 0 <= y(1,0,1) <= 1
 -46 <= v(0,1,1) <= 43
 -58 <= v(1,0,1) <= 31
 -640 <= u(0,1,1)
 -640 <= u(1,0,1)
 0 <= y(0,2,1) <= 1
 0 <= y(2,0,1) <= 1
 -57 <= v(0,2,1) <= 49
 -58 <= v(2,0,1) <= 48
 -640 <= u(0,2,1)
 -640 <= u(2,0,1)
 0 <= y(0,3,1) <= 1
 0 <= y(3,0,1) <= 1
 -54 <= v(0,3,1) <= 47
 -58 <= v(3,0,1) <= 43
 -640 <= u(0,3,1)
 -640 <= u(3,0,1)
 0 <= x(1,1) <= 37
 0 <= y(1,2,1) <= 1
 0 <= y(2,1,1) <= 1
 -57 <= v(1,2,1) <= 34
 -46 <= v(2,1,1) <= 45
 -640 <= u(1,2,1)
 -640 <= u(2,1,1)
 0 <= y(1,3,1) <= 1
 0 <= y(3,1,1) <= 1
 -54 <= v(1,3,1) <= 32
 -46 <= v(3,1,1) <= 40
 -640 <= u(1,3,1)
 -640 <= u(3,1,1)
 0 <= x(2,1) <= 54
 0 <= y(2,3,1) <= 1
 0 <= y(3,2,1) <= 1
 -54 <= v(2,3,1) <= 49
 -57 <= v(3,2,1) <= 46
 -640 <= u(2,3,1)
 -640 <= u(3,2,1)
 0 <= x(3,1) <= 49
 6 <= x(0,2) <= 58
 0 <= y(0,1,2) <= 1
 0 <= y(1,0,2) <= 1
 -49 <= v(0,1,2) <= 40
 -53 <= v(1,0,2) <= 36
 -640 <= u(0,1,2)
 -640 <= u(1,0,2)
 0 <= y(0,2,2) <= 1
 0 <= y(2,0,2) <= 1
 -55 <= v(0,2,2) <= 51
 -59 <= v(2,0,2) <= 47
 -640 <= u(0,2,2)
 -640 <= u(2,0,2)
 0 <= y(0,3,2) <= 1
 0 <= y(3,0,2) <= 1
 -50 <= v(0,3,2) <= 51
 -57 <= v(3,0,2) <= 44
 -640 <= u(0,3,2)
 -640 <= u(3,0,2)
 9 <= x(1,2) <= 46
 0 <= y(1,2,2) <= 1
 0 <= y(2,1,2) <= 1
 -52 <= v(1,2,2) <= 39
 -52 <= v(2,1,2) <= 39
 -640 <= u(1,2,2)
 -640 <= u(2,1,2)
 0 <= y(1,3,2) <= 1
 0 <= y(3,1,2) <= 1
 -47 <= v(1,3,2) <= 39
 -50 <= v(3,1,2) <= 36
 -640 <= u(1,3,2)
 -640 <= u(3,1,2)
 3 <= x(2,2) <= 57
 0 <= y(2,3,2) <= 1
 0 <= y(3,2,2) <= 1
 -53 <= v(2,3,2) <= 50
 -56 <= v(3,2,2) <= 47
 -640 <= u(2,3,2)
 -640 <= u(3,2,2)
 5 <= x(3,2) <= 54
Integers
C x(0,0) y(0,1,0) y(1,0,0) v(0,1,0) v(1,0,0) u(0,1,0) u(1,0,0) y(0,2,0) y(2,0,0) 
v(0,2,0) v(2,0,0) u(0,2,0) u(2,0,0) y(0,3,0) y(3,0,0) v(0,3,0) v(3,0,0) u(0,3,0) u(3,0,0) 
x(1,0) y(1,2,0) y(2,1,0) v(1,2,0) v(2,1,0) u(1,2,0) u(2,1,0) y(1,3,0) y(3,1,0) v(1,3,0) 
v(3,1,0) u(1,3,0) u(3,1,0) x(2,0) y(2,3,0) y(3,2,0) v(2,3,0) v(3,2,0) u(2,3,0) u(3,2,0) 
x(3,0) x(0,1) y(0,1,1) y(1,0,1) v(0,1,1) v(1,0,1) u(0,1,1) u(1,0,1) y(0,2,1) y(2,0,1) 
v(0,2,1) v(2,0,1) u(0,2,1) u(2,0,1) y(0,3,1) y(3,0,1) v(0,3,1) v(3,0,1) u(0,3,1) u(3,0,1) 
x(1,1) y(1,2,1) y(2,1,1) v(1,2,1) v(2,1,1) u(1,2,1) u(2,1,1) y(1,3,1) y(3,1,1) v(1,3,1) 
v(3,1,1) u(1,3,1) u(3,1,1) x(2,1) y(2,3,1) y(3,2,1) v(2,3,1) v(3,2,1) u(2,3,1) u(3,2,1) 
x(3,1) x(0,2) y(0,1,2) y(1,0,2) v(0,1,2) v(1,0,2) u(0,1,2) u(1,0,2) y(0,2,2) y(2,0,2) 
v(0,2,2) v(2,0,2) u(0,2,2) u(2,0,2) y(0,3,2) y(3,0,2) v(0,3,2) v(3,0,2) u(0,3,2) u(3,0,2) 
x(1,2) y(1,2,2) y(2,1,2) v(1,2,2) v(2,1,2) u(1,2,2) u(2,1,2) y(1,3,2) y(3,1,2) v(1,3,2) 
v(3,1,2) u(1,3,2) u(3,1,2) x(2,2) y(2,3,2) y(3,2,2) v(2,3,2) v(3,2,2) u(2,3,2) u(3,2,2) 
x(3,2) 
End
